p cnf 17 17 
1 -2 -3 -4 -5 0
-1 -2 7 -10 -11 0
-1 -2 7 -10 11 0
-1 -2 7 10 -11 0
-1 -2 7 10 11 0
-7 -3 8 -12 -13 0
-7 -3 8 -12 13 0
-7 -3 8 12 -13 0
-7 -3 8 12 13 0
-8 -4 9 -14 -15 0
-8 -4 9 -14 15 0
-8 -4 9 14 -15 0
-8 -4 9 14 15 0
-9 -5 -6 -16 -17 0
-9 -5 -6 -16 17 0
-9 -5 -6 16 -17 0
-9 -5 -6 16 17 0
